(set-logic QF_BV)
(declare-fun _substvar_222_ () Bool)
(declare-fun _substvar_172_ () (_ BitVec 159))
(declare-fun _substvar_47_ () (_ BitVec 159))
(declare-fun _substvar_155_ () (_ BitVec 159))
(declare-fun _substvar_160_ () (_ BitVec 159))
(assert (and true true true true true true true true true true true true (= _substvar_155_ (_ bv0 159)) (ite _substvar_222_ (= _substvar_160_ (_ bv0 159)) (= _substvar_160_ (concat (_ bv0 158) (bvxor (_ bv0 1) ((_ extract 127 127) _substvar_155_))))) (= _substvar_172_ (concat ((_ extract 157 0) _substvar_160_) (bvxor ((_ extract 158 158) _substvar_160_) ((_ extract 127 127) _substvar_160_)))) (= _substvar_47_ (concat ((_ extract 157 0) _substvar_172_) (_ bv0 1))) true true true true true true true true true true true true true true true true true true true true true true true true true true true true true true true true true true true true true true true true true true true true true true true true true true true true true true true true true true (= (= _substvar_47_ (_ bv0 159)) false)))
(check-sat)
(exit)
